results/res_prop_muc/res_Cimatti_mathsat_cores/QF_LRA/good_frame_update.induction.smt.smt2.res
unsat
( c1046
  c1049
  c1071
  c1072
  c125
  c153
  c154
  c178
  c179
  c183
  c184
  c195
  c218
  c269
  c316
  c321
  c322
  c346
  c347
  c351
  c352
  c384
  c39
  c40
  c406
  c475
  c477
  c511
  c520
  c537
  c538
  c547
  c549
  c61
  c8 )
